results/res_prop_muc/res_Cimatti_mathsat_cores/QF_IDL/DTP_k2_n35_c245_s1.smt.smt2.res
unsat
( c0
  c1
  c100
  c101
  c103
  c105
  c108
  c109
  c11
  c113
  c114
  c115
  c116
  c121
  c123
  c124
  c13
  c130
  c136
  c137
  c139
  c14
  c140
  c142
  c143
  c145
  c146
  c147
  c149
  c15
  c150
  c154
  c155
  c156
  c157
  c16
  c160
  c165
  c166
  c167
  c168
  c171
  c173
  c175
  c176
  c177
  c179
  c180
  c182
  c183
  c189
  c19
  c192
  c196
  c199
  c200
  c202
  c205
  c207
  c208
  c209
  c21
  c212
  c216
  c218
  c219
  c22
  c221
  c223
  c229
  c236
  c237
  c238
  c239
  c240
  c241
  c244
  c25
  c26
  c27
  c30
  c31
  c32
  c33
  c35
  c36
  c38
  c44
  c45
  c47
  c48
  c49
  c5
  c50
  c51
  c52
  c53
  c54
  c55
  c56
  c57
  c59
  c6
  c64
  c65
  c67
  c74
  c75
  c76
  c78
  c79
  c8
  c81
  c83
  c84
  c85
  c86
  c88
  c89
  c9
  c90
  c92
  c94
  c95
  c96
  c99 )
